p cnf 28 28
11 -12 13 14 -15 -16 17 -18 19 -110 -111 -112 -113 114 115 -116 -117 -118 119 120 121 122 -123 124 -125 126 -127 128 0
-11 12 13 14 -15 -16 17 -18 19 -110 111 -112 -113 114 -115 116 117 -118 -119 -120 121 122 -123 124 125 126 127 -128 0
11 12 13 -14 15 -16 -17 18 19 -110 111 112 -113 -114 115 -116 117 118 -119 120 -121 122 -123 124 -125 -126 127 -128 0
11 12 -13 14 -15 -16 -17 -18 -19 110 111 112 113 -114 -115 116 -117 118 -119 -120 -121 -122 -123 124 125 -126 127 128 0
-11 -12 13 -14 15 16 -17 18 19 -110 111 -112 -113 114 -115 116 -117 -118 119 120 -121 -122 -123 124 125 -126 -127 128 0
-11 -12 -13 -14 15 16 17 18 19 110 111 -112 -113 -114 115 116 117 118 -119 120 121 -122 123 124 125 126 127 -128 0
11 12 -13 -14 -15 16 17 18 19 -110 -111 112 -113 114 -115 116 -117 118 119 120 -121 122 123 -124 125 -126 -127 128 0
-11 -12 13 -14 15 16 17 18 19 110 111 112 -113 114 -115 116 -117 118 119 120 121 -122 -123 124 -125 -126 -127 128 0
11 12 13 -14 15 16 17 18 19 110 -111 112 -113 114 115 116 -117 118 -119 -120 -121 -122 123 124 -125 126 127 128 0
-11 -12 -13 14 -15 16 -17 18 19 110 111 112 -113 -114 115 116 117 118 119 -120 121 122 123 -124 -125 126 127 128 0
-11 12 13 14 15 16 -17 18 -19 110 111 112 113 114 115 -116 -117 -118 -119 120 -121 122 123 124 125 126 -127 -128 0
-11 -12 13 14 -15 -16 17 18 19 110 111 112 113 114 -115 116 -117 118 -119 -120 -121 -122 123 -124 125 126 127 128 0
-11 -12 -13 14 -15 -16 -17 -18 -19 -110 111 112 113 114 115 116 117 -118 119 -120 121 -122 -123 -124 -125 -126 -127 128 0
11 12 -13 -14 15 -16 17 18 19 -110 111 112 113 114 -115 116 117 118 -119 120 -121 -122 123 124 125 126 127 128 0
11 -12 13 -14 -15 16 -17 -18 19 110 111 -112 113 -114 115 -116 -117 -118 119 -120 -121 122 123 124 125 126 127 -128 0
-11 12 -13 14 15 16 17 18 19 110 -111 112 113 114 -115 116 117 -118 119 -120 121 -122 123 124 -125 -126 127 -128 0
-11 12 13 -14 -15 16 -17 -18 -19 110 -111 -112 113 114 -115 116 117 118 119 -120 121 -122 -123 124 125 126 -127 -128 0
-11 -12 13 14 -15 16 17 18 19 110 -111 112 -113 114 -115 -116 117 118 119 120 121 122 -123 124 125 -126 -127 128 0
11 -12 -13 -14 15 -16 17 18 -19 110 -111 -112 113 -114 115 116 117 118 119 -120 121 -122 123 -124 -125 126 127 128 0
11 -12 13 -14 15 16 17 18 -19 -110 111 -112 -113 114 -115 -116 -117 118 -119 120 -121 122 -123 124 125 -126 127 -128 0
11 12 -13 -14 -15 16 -17 18 -19 110 -111 -112 113 -114 -115 116 117 118 119 -120 121 122 -123 124 -125 126 -127 -128 0
11 12 13 -14 -15 -16 17 -18 -19 110 111 -112 -113 -114 115 -116 -117 118 -119 120 121 122 123 -124 -125 126 -127 128 0
-11 -12 -13 -14 -15 16 17 -18 19 110 111 112 -113 114 115 116 -117 -118 119 -120 -121 122 123 -124 -125 126 127 128 0
11 12 13 14 15 16 -17 18 19 -110 111 -112 -113 114 115 116 117 118 -119 120 121 -122 -123 124 -125 126 127 128 0
-11 12 -13 14 15 16 17 -18 -19 -110 111 112 -113 114 115 -116 117 118 -119 120 -121 -122 -123 -124 125 -126 -127 128 0
11 12 -13 -14 -15 16 -17 -18 19 110 111 112 -113 114 115 -116 117 -118 119 -120 121 122 123 124 -125 126 127 128 0
-11 12 13 14 -15 16 -17 -18 19 110 -111 112 -113 114 115 116 -117 -118 119 120 -121 -122 123 124 -125 126 127 -128 0
11 -12 -13 14 15 -16 17 18 19 110 -111 112 113 114 -115 -116 -117 118 119 -120 -121 122 123 124 125 126 -127 128 0
